************************************************************************
file with basedata            : mm13_.bas
initial value random generator: 1859685840
************************************************************************
projects                      :  1
jobs (incl. supersource/sink ):  12
horizon                       :  79
RESOURCES
  - renewable                 :  2   R
  - nonrenewable              :  2   N
  - doubly constrained        :  0   D
************************************************************************
PROJECT INFORMATION:
pronr.  #jobs rel.date duedate tardcost  MPM-Time
    1     10      0       13        3       13
************************************************************************
PRECEDENCE RELATIONS:
jobnr.    #modes  #successors   successors
   0        1          3           1   2   3
   1        3          1          10
   2        3          3           4   8   9
   3        3          3           5   8   9
   4        3          1           5
   5        3          2           6   7
   6        3          1          10
   7        3          1          10
   8        3          1          11
   9        3          1          11
  10        3          1          11
  11        1          0        
************************************************************************
REQUESTS/DURATIONS:
jobnr. mode duration  R 1  R 2  R 3  R 4  E(W 1)  E(W 2)
------------------------------------------------------------------------
  0      1     0       0    0    0    0     0       0
  1      1     1       8    0    4    5     8       9
  2      1     2       9    0    9    8    18      34
  3      1     1       7    0    7    9     7      16
  4      1     1       0    4    6    7     4      13
  5      1     3       5    0    4   10    15      42
  6      1     4       6    0   10    7    24      68
  7      1     1       4    0   10    9     4      19
  8      1     6      10    0    9    8    60      102
  9      1     4       0   10    8    4    40      48
 10      1     3       7    0    7    7    21      42
 11      1     0       0    0    0    0     0       0
************************************************************************
RESOURCEAVAILABILITIES:
  R 1  R 2
   20   102
************************************************************************
RESOURCE LIMITS:
jobnr.  l(R 1)  u(R 1)  l(R 2)  u(R 2)
------------------------------------------------------------------------
  0        0       0       0       0
  1        4       8       5       9
  2        5       9       9      17
  3        4       7       9      16
  4        2       4       7      13
  5        3       5       7      14
  6        3       6       9      17
  7        2       4      10      19
  8        5      10       9      17
  9        5      10       6      12
 10        4       7       8      14
 11        0       0       0       0
************************************************************************
SCENARIOS:
------------------------------------------------------------------------
RESOURCE k = 1
s = 1: (0, 8, 15, 7, 3, 12, 27, 5, 47, 62, 28, 0)
s = 2: (0, 8, 19, 10, 4, 12, 27, 5, 33, 33, 16, 0)
s = 3: (0, 14, 19, 9, 4, 13, 33, 6, 85, 36, 16, 0)
s = 4: (0, 12, 22, 7, 5, 17, 24, 6, 76, 48, 16, 0)
s = 5: (0, 10, 17, 8, 6, 12, 26, 4, 105, 32, 27, 0)
s = 6: (0, 7, 20, 9, 5, 16, 18, 5, 40, 26, 30, 0)
s = 7: (0, 9, 15, 6, 4, 12, 35, 4, 46, 47, 20, 0)
s = 8: (0, 6, 34, 12, 4, 10, 37, 4, 49, 46, 20, 0)
s = 9: (0, 9, 18, 7, 6, 13, 32, 4, 80, 30, 14, 0)
s = 10: (0, 10, 22, 7, 4, 9, 17, 4, 45, 50, 40, 0)
s = 11: (0, 10, 19, 9, 4, 29, 34, 7, 55, 47, 22, 0)
s = 12: (0, 7, 19, 8, 4, 13, 22, 4, 51, 42, 16, 0)
s = 13: (0, 13, 18, 11, 6, 12, 29, 3, 55, 35, 27, 0)
s = 14: (0, 11, 15, 6, 4, 15, 36, 3, 39, 25, 15, 0)
s = 15: (0, 11, 12, 8, 5, 15, 13, 4, 99, 31, 20, 0)
s = 16: (0, 10, 16, 9, 5, 12, 33, 4, 60, 40, 25, 0)
s = 17: (0, 7, 18, 12, 5, 19, 23, 3, 53, 24, 27, 0)
s = 18: (0, 9, 10, 4, 5, 10, 43, 4, 33, 54, 22, 0)
s = 19: (0, 8, 20, 6, 4, 13, 25, 4, 50, 47, 27, 0)
s = 20: (0, 8, 16, 6, 6, 10, 32, 5, 66, 57, 20, 0)
s = 21: (0, 9, 26, 10, 3, 20, 20, 4, 56, 42, 35, 0)
s = 22: (0, 11, 21, 9, 4, 19, 27, 3, 55, 41, 17, 0)
s = 23: (0, 10, 19, 13, 5, 13, 21, 4, 48, 38, 26, 0)
s = 24: (0, 11, 16, 6, 4, 11, 30, 4, 57, 31, 21, 0)
s = 25: (0, 9, 17, 7, 5, 17, 17, 4, 60, 48, 21, 0)
s = 26: (0, 11, 17, 5, 3, 17, 18, 4, 81, 38, 22, 0)
s = 27: (0, 8, 14, 9, 4, 25, 20, 7, 71, 66, 29, 0)
s = 28: (0, 11, 20, 7, 5, 16, 23, 4, 38, 37, 17, 0)
s = 29: (0, 12, 22, 9, 5, 18, 26, 5, 48, 70, 23, 0)
s = 30: (0, 9, 18, 7, 3, 17, 24, 5, 46, 39, 22, 0)
s = 31: (0, 7, 25, 5, 6, 15, 19, 7, 68, 51, 19, 0)
s = 32: (0, 11, 19, 8, 4, 12, 17, 3, 82, 53, 25, 0)
s = 33: (0, 12, 25, 8, 3, 13, 17, 4, 75, 27, 16, 0)
s = 34: (0, 7, 18, 7, 4, 13, 24, 3, 49, 57, 28, 0)
s = 35: (0, 6, 28, 8, 4, 13, 28, 3, 40, 28, 13, 0)
s = 36: (0, 6, 17, 8, 5, 18, 33, 3, 52, 33, 18, 0)
s = 37: (0, 6, 25, 6, 4, 16, 25, 4, 77, 54, 30, 0)
s = 38: (0, 14, 23, 9, 5, 11, 22, 7, 44, 56, 21, 0)
s = 39: (0, 11, 13, 6, 5, 19, 16, 4, 54, 49, 27, 0)
s = 40: (0, 9, 17, 8, 6, 24, 24, 4, 35, 56, 21, 0)
s = 41: (0, 8, 23, 9, 4, 16, 29, 5, 58, 46, 28, 0)
s = 42: (0, 7, 18, 7, 7, 15, 36, 4, 51, 42, 23, 0)
s = 43: (0, 9, 10, 7, 3, 14, 21, 5, 83, 55, 15, 0)
s = 44: (0, 8, 21, 8, 5, 17, 24, 6, 72, 32, 34, 0)
s = 45: (0, 7, 14, 6, 4, 10, 16, 4, 45, 24, 20, 0)
s = 46: (0, 5, 20, 6, 4, 20, 22, 5, 76, 38, 22, 0)
s = 47: (0, 8, 18, 6, 4, 15, 18, 5, 54, 45, 17, 0)
s = 48: (0, 9, 18, 5, 3, 8, 37, 3, 46, 31, 17, 0)
s = 49: (0, 5, 17, 7, 6, 20, 15, 6, 84, 44, 14, 0)
s = 50: (0, 9, 13, 9, 4, 19, 28, 3, 59, 35, 18, 0)
s = 51: (0, 7, 18, 5, 3, 10, 27, 4, 95, 32, 22, 0)
s = 52: (0, 8, 22, 6, 5, 16, 29, 4, 67, 38, 26, 0)
s = 53: (0, 9, 19, 7, 8, 12, 18, 5, 86, 36, 29, 0)
s = 54: (0, 9, 18, 9, 5, 19, 24, 5, 70, 54, 14, 0)
s = 55: (0, 7, 19, 6, 6, 13, 29, 5, 56, 33, 12, 0)
s = 56: (0, 13, 12, 9, 3, 18, 21, 7, 33, 62, 18, 0)
s = 57: (0, 7, 11, 5, 5, 12, 31, 3, 85, 21, 20, 0)
s = 58: (0, 7, 16, 7, 7, 20, 31, 4, 61, 68, 19, 0)
s = 59: (0, 5, 16, 7, 3, 21, 23, 5, 37, 34, 16, 0)
s = 60: (0, 9, 15, 12, 5, 14, 30, 4, 60, 47, 23, 0)
s = 61: (0, 13, 21, 10, 5, 14, 22, 6, 32, 43, 27, 0)
s = 62: (0, 12, 19, 8, 8, 11, 17, 3, 70, 51, 17, 0)
s = 63: (0, 10, 12, 7, 6, 12, 20, 7, 39, 65, 15, 0)
s = 64: (0, 6, 16, 7, 6, 11, 25, 4, 58, 57, 21, 0)
s = 65: (0, 8, 20, 4, 6, 22, 26, 5, 59, 29, 19, 0)
s = 66: (0, 8, 20, 6, 3, 24, 29, 4, 102, 29, 17, 0)
s = 67: (0, 10, 21, 7, 7, 13, 19, 7, 48, 57, 24, 0)
s = 68: (0, 10, 19, 12, 4, 20, 28, 6, 93, 34, 31, 0)
s = 69: (0, 7, 20, 11, 4, 15, 26, 3, 55, 61, 28, 0)
s = 70: (0, 8, 23, 6, 6, 22, 23, 4, 77, 33, 31, 0)
s = 71: (0, 9, 22, 7, 4, 15, 31, 4, 57, 29, 16, 0)
s = 72: (0, 12, 27, 10, 5, 15, 17, 7, 61, 57, 16, 0)
s = 73: (0, 9, 28, 7, 5, 13, 31, 4, 57, 32, 16, 0)
s = 74: (0, 9, 20, 9, 7, 14, 17, 7, 98, 35, 22, 0)
s = 75: (0, 12, 30, 8, 6, 13, 30, 5, 85, 41, 21, 0)
s = 76: (0, 8, 17, 8, 4, 13, 16, 3, 49, 42, 14, 0)
s = 77: (0, 9, 21, 11, 5, 17, 17, 4, 53, 48, 22, 0)
s = 78: (0, 10, 16, 7, 3, 9, 32, 5, 59, 51, 19, 0)
s = 79: (0, 10, 24, 11, 3, 15, 38, 5, 38, 33, 16, 0)
s = 80: (0, 8, 18, 6, 3, 22, 23, 4, 73, 26, 25, 0)
s = 81: (0, 10, 15, 6, 4, 21, 21, 5, 51, 42, 19, 0)
s = 82: (0, 6, 19, 13, 6, 8, 20, 3, 61, 38, 25, 0)
s = 83: (0, 7, 27, 8, 6, 13, 20, 7, 63, 51, 12, 0)
s = 84: (0, 8, 26, 9, 3, 9, 22, 5, 50, 29, 35, 0)
s = 85: (0, 8, 12, 6, 4, 14, 31, 4, 59, 27, 22, 0)
s = 86: (0, 7, 18, 7, 4, 21, 15, 5, 75, 54, 21, 0)
s = 87: (0, 7, 15, 5, 5, 20, 17, 5, 109, 31, 14, 0)
s = 88: (0, 8, 22, 9, 3, 11, 18, 7, 54, 23, 24, 0)
s = 89: (0, 6, 15, 5, 5, 19, 31, 5, 61, 45, 21, 0)
s = 90: (0, 7, 14, 8, 3, 23, 38, 3, 35, 24, 29, 0)
s = 91: (0, 5, 18, 10, 6, 12, 36, 6, 85, 57, 15, 0)
s = 92: (0, 7, 20, 6, 4, 15, 21, 5, 82, 24, 14, 0)
s = 93: (0, 6, 19, 4, 5, 15, 36, 4, 45, 33, 15, 0)
s = 94: (0, 6, 25, 5, 5, 17, 22, 5, 41, 39, 14, 0)
s = 95: (0, 8, 15, 4, 7, 18, 25, 3, 51, 65, 24, 0)
s = 96: (0, 6, 15, 5, 4, 18, 20, 7, 75, 33, 23, 0)
s = 97: (0, 6, 18, 11, 4, 20, 28, 3, 34, 53, 14, 0)
s = 98: (0, 8, 11, 10, 3, 21, 16, 7, 78, 29, 14, 0)
s = 99: (0, 10, 15, 6, 3, 13, 24, 4, 61, 51, 20, 0)
s = 100: (0, 5, 15, 9, 4, 16, 35, 5, 49, 35, 28, 0)
s = 101: (0, 10, 21, 7, 4, 9, 32, 6, 68, 63, 28, 0)
s = 102: (0, 12, 19, 7, 3, 19, 28, 5, 45, 40, 20, 0)
s = 103: (0, 7, 16, 11, 4, 10, 17, 4, 50, 50, 19, 0)
s = 104: (0, 8, 20, 8, 4, 19, 29, 5, 69, 33, 14, 0)
s = 105: (0, 11, 12, 5, 3, 10, 16, 4, 35, 24, 21, 0)
s = 106: (0, 12, 28, 9, 5, 22, 25, 4, 50, 59, 31, 0)
s = 107: (0, 6, 16, 8, 3, 22, 21, 3, 81, 46, 22, 0)
s = 108: (0, 7, 17, 11, 4, 10, 25, 4, 58, 46, 15, 0)
s = 109: (0, 7, 20, 7, 3, 13, 27, 5, 83, 40, 15, 0)
s = 110: (0, 11, 25, 8, 3, 16, 18, 5, 47, 28, 16, 0)
s = 111: (0, 5, 19, 10, 6, 15, 21, 6, 42, 57, 22, 0)
s = 112: (0, 8, 14, 6, 7, 18, 25, 6, 85, 27, 25, 0)
s = 113: (0, 10, 15, 5, 4, 12, 17, 3, 71, 70, 18, 0)
s = 114: (0, 11, 19, 7, 5, 10, 15, 5, 85, 42, 19, 0)
s = 115: (0, 7, 19, 5, 4, 12, 29, 4, 66, 27, 31, 0)
s = 116: (0, 6, 24, 8, 3, 13, 20, 3, 44, 40, 16, 0)
s = 117: (0, 9, 24, 10, 5, 11, 22, 4, 58, 36, 17, 0)
s = 118: (0, 7, 17, 6, 4, 15, 22, 5, 49, 29, 19, 0)
s = 119: (0, 7, 19, 7, 3, 14, 32, 3, 86, 31, 20, 0)
s = 120: (0, 12, 20, 5, 7, 15, 28, 3, 47, 49, 21, 0)
s = 121: (0, 9, 24, 12, 4, 22, 15, 6, 71, 37, 18, 0)
s = 122: (0, 11, 23, 7, 5, 22, 35, 6, 39, 62, 28, 0)
s = 123: (0, 7, 16, 10, 5, 19, 27, 6, 67, 26, 25, 0)
s = 124: (0, 8, 21, 5, 4, 11, 23, 3, 58, 35, 31, 0)
s = 125: (0, 8, 22, 6, 3, 15, 13, 4, 44, 32, 17, 0)
s = 126: (0, 10, 19, 10, 3, 17, 16, 4, 58, 49, 14, 0)
s = 127: (0, 11, 25, 8, 7, 19, 22, 4, 83, 49, 20, 0)
s = 128: (0, 10, 11, 8, 6, 13, 21, 3, 43, 32, 17, 0)
s = 129: (0, 7, 21, 7, 6, 18, 18, 4, 50, 30, 24, 0)
s = 130: (0, 8, 12, 7, 5, 10, 22, 3, 53, 42, 16, 0)
s = 131: (0, 7, 13, 10, 4, 15, 26, 4, 47, 35, 15, 0)
s = 132: (0, 8, 18, 10, 5, 12, 18, 4, 60, 40, 32, 0)
s = 133: (0, 7, 23, 7, 7, 10, 16, 6, 41, 50, 22, 0)
s = 134: (0, 5, 19, 6, 3, 11, 32, 3, 66, 37, 13, 0)
s = 135: (0, 6, 19, 7, 3, 15, 33, 5, 90, 46, 12, 0)
s = 136: (0, 9, 13, 9, 3, 28, 31, 5, 58, 35, 16, 0)
s = 137: (0, 11, 22, 8, 3, 13, 28, 5, 75, 43, 20, 0)
s = 138: (0, 15, 23, 5, 5, 22, 24, 4, 60, 65, 20, 0)
s = 139: (0, 7, 22, 9, 4, 16, 14, 4, 67, 31, 22, 0)
s = 140: (0, 9, 26, 5, 4, 10, 20, 3, 99, 46, 35, 0)
s = 141: (0, 13, 16, 8, 5, 17, 17, 4, 50, 35, 21, 0)
s = 142: (0, 10, 17, 8, 5, 14, 31, 3, 39, 35, 26, 0)
s = 143: (0, 11, 22, 7, 4, 17, 23, 3, 52, 46, 15, 0)
s = 144: (0, 11, 27, 12, 7, 17, 17, 5, 57, 41, 21, 0)
s = 145: (0, 5, 19, 6, 6, 18, 34, 5, 83, 49, 19, 0)
s = 146: (0, 8, 21, 9, 5, 10, 25, 3, 68, 47, 24, 0)
s = 147: (0, 7, 23, 7, 5, 10, 32, 6, 35, 28, 29, 0)
s = 148: (0, 9, 19, 7, 3, 12, 17, 4, 68, 24, 17, 0)
s = 149: (0, 7, 24, 7, 3, 15, 28, 3, 45, 27, 29, 0)
s = 150: (0, 10, 16, 8, 4, 13, 30, 6, 38, 45, 27, 0)
s = 151: (0, 12, 15, 7, 4, 15, 19, 4, 39, 44, 26, 0)
s = 152: (0, 8, 13, 7, 3, 10, 13, 4, 60, 26, 26, 0)
s = 153: (0, 9, 13, 12, 4, 18, 22, 3, 81, 54, 19, 0)
s = 154: (0, 12, 19, 8, 4, 13, 27, 4, 42, 27, 23, 0)
s = 155: (0, 9, 20, 7, 5, 14, 15, 4, 45, 36, 14, 0)
s = 156: (0, 14, 16, 5, 4, 13, 31, 5, 112, 21, 15, 0)
s = 157: (0, 8, 24, 7, 4, 19, 38, 4, 46, 46, 24, 0)
s = 158: (0, 8, 16, 8, 3, 15, 35, 5, 59, 42, 22, 0)
s = 159: (0, 11, 20, 9, 4, 14, 14, 3, 68, 74, 29, 0)
s = 160: (0, 9, 12, 8, 5, 16, 28, 6, 73, 37, 28, 0)
s = 161: (0, 12, 22, 6, 7, 20, 18, 3, 60, 43, 16, 0)
s = 162: (0, 9, 17, 6, 4, 10, 25, 3, 73, 27, 26, 0)
s = 163: (0, 9, 26, 9, 5, 18, 19, 4, 87, 39, 12, 0)
s = 164: (0, 6, 17, 8, 4, 15, 27, 4, 39, 68, 13, 0)
s = 165: (0, 7, 18, 6, 5, 11, 16, 3, 75, 29, 14, 0)
s = 166: (0, 7, 25, 7, 3, 11, 20, 8, 34, 27, 24, 0)
s = 167: (0, 5, 20, 8, 4, 11, 15, 4, 64, 39, 25, 0)
s = 168: (0, 6, 13, 7, 5, 17, 32, 6, 89, 32, 15, 0)
s = 169: (0, 10, 14, 6, 6, 17, 37, 7, 49, 55, 21, 0)
s = 170: (0, 7, 22, 4, 4, 12, 27, 5, 63, 34, 16, 0)
s = 171: (0, 5, 20, 5, 4, 21, 20, 5, 77, 40, 17, 0)
s = 172: (0, 8, 21, 8, 4, 14, 20, 5, 77, 22, 30, 0)
s = 173: (0, 5, 18, 9, 7, 22, 36, 4, 87, 64, 21, 0)
s = 174: (0, 7, 16, 6, 4, 14, 16, 4, 56, 47, 24, 0)
s = 175: (0, 9, 29, 8, 4, 13, 16, 7, 43, 36, 33, 0)
s = 176: (0, 8, 25, 8, 4, 18, 14, 6, 36, 44, 18, 0)
s = 177: (0, 7, 20, 6, 4, 18, 16, 4, 69, 38, 22, 0)
s = 178: (0, 6, 12, 6, 4, 14, 36, 3, 68, 30, 17, 0)
s = 179: (0, 8, 24, 7, 4, 27, 17, 5, 49, 48, 27, 0)
s = 180: (0, 9, 16, 7, 4, 16, 21, 4, 57, 42, 14, 0)
s = 181: (0, 8, 27, 7, 4, 21, 33, 3, 39, 46, 31, 0)
s = 182: (0, 6, 17, 10, 5, 13, 25, 4, 40, 41, 20, 0)
s = 183: (0, 10, 14, 7, 7, 18, 36, 3, 79, 32, 24, 0)
s = 184: (0, 13, 21, 7, 5, 16, 29, 4, 71, 32, 19, 0)
s = 185: (0, 8, 21, 5, 5, 12, 30, 4, 47, 48, 18, 0)
s = 186: (0, 10, 24, 12, 3, 12, 19, 3, 38, 40, 16, 0)
s = 187: (0, 8, 22, 8, 5, 23, 22, 5, 51, 41, 23, 0)
s = 188: (0, 7, 17, 8, 5, 12, 16, 3, 76, 59, 22, 0)
s = 189: (0, 12, 25, 5, 3, 9, 29, 4, 108, 23, 17, 0)
s = 190: (0, 6, 13, 6, 4, 21, 27, 5, 51, 28, 21, 0)
s = 191: (0, 8, 14, 8, 3, 12, 30, 8, 56, 71, 22, 0)
s = 192: (0, 6, 30, 8, 6, 10, 28, 4, 42, 31, 19, 0)
s = 193: (0, 10, 24, 10, 6, 19, 32, 7, 36, 43, 32, 0)
s = 194: (0, 10, 25, 8, 4, 21, 28, 4, 59, 51, 27, 0)
s = 195: (0, 8, 22, 5, 3, 14, 21, 6, 42, 27, 21, 0)
s = 196: (0, 6, 19, 5, 6, 13, 33, 6, 52, 42, 17, 0)
s = 197: (0, 8, 20, 7, 6, 21, 26, 6, 79, 53, 24, 0)
s = 198: (0, 9, 18, 12, 4, 10, 20, 5, 34, 59, 15, 0)
s = 199: (0, 13, 12, 7, 4, 17, 28, 4, 46, 46, 21, 0)
s = 200: (0, 6, 15, 7, 3, 12, 27, 6, 55, 28, 19, 0)
------------------------------------------------------------------------
RESOURCE k = 2
s = 1: (0, 9, 27, 15, 9, 32, 77, 22, 79, 74, 56, 0)
s = 2: (0, 9, 36, 21, 12, 32, 75, 23, 56, 40, 32, 0)
s = 3: (0, 16, 35, 19, 12, 35, 91, 28, 144, 43, 32, 0)
s = 4: (0, 13, 41, 15, 15, 47, 68, 26, 129, 57, 32, 0)
s = 5: (0, 12, 32, 19, 19, 33, 72, 15, 179, 38, 53, 0)
s = 6: (0, 8, 37, 20, 17, 45, 50, 23, 67, 31, 59, 0)
s = 7: (0, 10, 27, 14, 12, 34, 98, 19, 77, 57, 40, 0)
s = 8: (0, 7, 64, 27, 10, 27, 105, 19, 84, 55, 39, 0)
s = 9: (0, 10, 33, 14, 18, 37, 89, 16, 135, 36, 28, 0)
s = 10: (0, 11, 41, 15, 12, 24, 46, 17, 77, 60, 80, 0)
s = 11: (0, 11, 35, 20, 11, 79, 96, 30, 93, 57, 44, 0)
s = 12: (0, 7, 36, 17, 13, 37, 62, 19, 86, 50, 32, 0)
s = 13: (0, 14, 33, 24, 19, 33, 82, 12, 94, 41, 54, 0)
s = 14: (0, 12, 29, 12, 12, 42, 102, 13, 66, 30, 30, 0)
s = 15: (0, 12, 22, 17, 15, 41, 36, 16, 168, 37, 40, 0)
s = 16: (0, 11, 29, 21, 14, 34, 92, 18, 101, 48, 50, 0)
s = 17: (0, 8, 34, 26, 14, 53, 63, 14, 90, 29, 53, 0)
s = 18: (0, 10, 19, 9, 15, 28, 120, 19, 56, 65, 44, 0)
s = 19: (0, 9, 37, 13, 11, 36, 69, 17, 85, 56, 53, 0)
s = 20: (0, 9, 29, 13, 17, 28, 90, 21, 113, 68, 40, 0)
s = 21: (0, 11, 49, 23, 10, 56, 55, 16, 95, 50, 69, 0)
s = 22: (0, 12, 40, 20, 13, 52, 76, 12, 94, 49, 34, 0)
s = 23: (0, 12, 35, 28, 15, 36, 57, 17, 81, 46, 52, 0)
s = 24: (0, 13, 30, 14, 11, 29, 84, 19, 96, 37, 42, 0)
s = 25: (0, 10, 31, 14, 14, 48, 48, 16, 102, 58, 42, 0)
s = 26: (0, 12, 32, 11, 8, 48, 51, 16, 137, 45, 43, 0)
s = 27: (0, 9, 25, 21, 10, 68, 55, 30, 121, 79, 57, 0)
s = 28: (0, 12, 37, 16, 15, 44, 64, 17, 65, 44, 33, 0)
s = 29: (0, 13, 42, 20, 15, 48, 72, 21, 81, 84, 46, 0)
s = 30: (0, 10, 33, 15, 8, 48, 68, 22, 78, 47, 44, 0)
s = 31: (0, 8, 47, 10, 19, 40, 53, 33, 116, 61, 38, 0)
s = 32: (0, 12, 35, 18, 11, 34, 47, 14, 140, 64, 50, 0)
s = 33: (0, 14, 47, 18, 8, 36, 49, 15, 127, 33, 31, 0)
s = 34: (0, 8, 34, 16, 13, 37, 67, 10, 84, 69, 55, 0)
s = 35: (0, 6, 52, 17, 12, 36, 79, 11, 68, 33, 26, 0)
s = 36: (0, 7, 32, 17, 14, 50, 91, 13, 88, 39, 36, 0)
s = 37: (0, 6, 46, 12, 12, 44, 70, 16, 130, 64, 59, 0)
s = 38: (0, 15, 43, 20, 16, 30, 62, 32, 75, 67, 42, 0)
s = 39: (0, 13, 25, 13, 15, 51, 46, 15, 91, 59, 54, 0)
s = 40: (0, 10, 31, 17, 18, 65, 68, 18, 59, 67, 41, 0)
s = 41: (0, 9, 42, 20, 13, 44, 82, 21, 98, 55, 55, 0)
s = 42: (0, 8, 34, 15, 20, 41, 101, 17, 86, 51, 46, 0)
s = 43: (0, 10, 19, 16, 10, 38, 58, 20, 141, 65, 29, 0)
s = 44: (0, 9, 39, 18, 14, 46, 68, 27, 122, 38, 67, 0)
s = 45: (0, 8, 26, 13, 13, 26, 44, 17, 76, 28, 39, 0)
s = 46: (0, 6, 38, 13, 11, 56, 61, 22, 129, 46, 43, 0)
s = 47: (0, 8, 34, 14, 11, 40, 49, 22, 92, 54, 34, 0)
s = 48: (0, 10, 33, 12, 9, 23, 104, 12, 78, 37, 34, 0)
s = 49: (0, 6, 32, 16, 17, 54, 42, 25, 143, 53, 28, 0)
s = 50: (0, 10, 23, 19, 11, 53, 78, 14, 100, 42, 35, 0)
s = 51: (0, 7, 33, 10, 10, 27, 76, 18, 161, 39, 44, 0)
s = 52: (0, 9, 41, 13, 14, 44, 81, 17, 114, 45, 51, 0)
s = 53: (0, 10, 36, 16, 25, 32, 51, 20, 147, 43, 57, 0)
s = 54: (0, 10, 34, 21, 14, 52, 68, 21, 118, 65, 27, 0)
s = 55: (0, 8, 35, 13, 19, 36, 81, 20, 95, 39, 23, 0)
s = 56: (0, 14, 23, 20, 9, 51, 57, 32, 56, 74, 36, 0)
s = 57: (0, 8, 20, 11, 16, 33, 87, 14, 145, 26, 40, 0)
s = 58: (0, 8, 30, 16, 20, 55, 86, 17, 104, 81, 37, 0)
s = 59: (0, 6, 29, 16, 9, 58, 66, 22, 63, 40, 32, 0)
s = 60: (0, 10, 28, 27, 16, 39, 85, 18, 102, 56, 45, 0)
s = 61: (0, 14, 40, 23, 16, 38, 61, 27, 54, 52, 54, 0)
s = 62: (0, 13, 36, 18, 24, 30, 48, 12, 119, 61, 33, 0)
s = 63: (0, 12, 22, 16, 19, 33, 55, 33, 66, 77, 29, 0)
s = 64: (0, 7, 30, 15, 18, 30, 70, 16, 98, 68, 41, 0)
s = 65: (0, 9, 37, 9, 17, 59, 73, 21, 100, 35, 38, 0)
s = 66: (0, 9, 38, 12, 9, 66, 81, 18, 173, 35, 33, 0)
s = 67: (0, 11, 39, 15, 22, 35, 52, 31, 81, 68, 47, 0)
s = 68: (0, 11, 36, 27, 11, 56, 79, 26, 158, 40, 61, 0)
s = 69: (0, 8, 37, 26, 12, 42, 73, 13, 92, 73, 55, 0)
s = 70: (0, 9, 43, 14, 17, 60, 63, 17, 130, 40, 61, 0)
s = 71: (0, 10, 42, 14, 11, 40, 88, 19, 96, 34, 32, 0)
s = 72: (0, 14, 51, 22, 14, 42, 49, 29, 103, 69, 32, 0)
s = 73: (0, 10, 53, 15, 14, 35, 87, 17, 97, 38, 31, 0)
s = 74: (0, 10, 37, 19, 23, 39, 46, 33, 167, 41, 44, 0)
s = 75: (0, 13, 57, 17, 19, 36, 84, 24, 144, 49, 41, 0)
s = 76: (0, 9, 31, 18, 11, 36, 44, 10, 84, 50, 28, 0)
s = 77: (0, 10, 40, 24, 14, 46, 47, 17, 90, 57, 44, 0)
s = 78: (0, 11, 30, 16, 9, 24, 89, 21, 100, 61, 38, 0)
s = 79: (0, 11, 45, 23, 9, 42, 106, 23, 64, 39, 32, 0)
s = 80: (0, 9, 33, 14, 9, 61, 63, 15, 124, 31, 50, 0)
s = 81: (0, 11, 29, 14, 11, 59, 58, 24, 86, 50, 38, 0)
s = 82: (0, 6, 35, 29, 19, 22, 56, 13, 103, 45, 50, 0)
s = 83: (0, 8, 51, 18, 18, 35, 55, 30, 107, 61, 24, 0)
s = 84: (0, 9, 49, 19, 9, 25, 62, 22, 85, 35, 69, 0)
s = 85: (0, 9, 23, 14, 13, 38, 87, 18, 100, 33, 43, 0)
s = 86: (0, 8, 34, 15, 13, 57, 40, 21, 128, 64, 41, 0)
s = 87: (0, 8, 29, 10, 15, 56, 47, 21, 185, 37, 27, 0)
s = 88: (0, 9, 41, 19, 9, 30, 50, 33, 91, 27, 48, 0)
s = 89: (0, 7, 27, 11, 15, 53, 86, 23, 103, 54, 42, 0)
s = 90: (0, 8, 26, 18, 8, 64, 107, 14, 59, 29, 57, 0)
s = 91: (0, 6, 34, 22, 17, 33, 102, 24, 145, 68, 30, 0)
s = 92: (0, 7, 38, 13, 12, 41, 59, 20, 138, 28, 28, 0)
s = 93: (0, 6, 35, 10, 15, 40, 101, 18, 76, 40, 30, 0)
s = 94: (0, 7, 46, 11, 14, 46, 61, 22, 69, 47, 28, 0)
s = 95: (0, 9, 28, 9, 22, 48, 71, 12, 87, 78, 47, 0)
s = 96: (0, 6, 28, 11, 12, 49, 55, 31, 128, 39, 45, 0)
s = 97: (0, 6, 33, 25, 13, 56, 78, 13, 58, 63, 27, 0)
s = 98: (0, 9, 21, 21, 9, 57, 44, 31, 132, 35, 28, 0)
s = 99: (0, 11, 27, 12, 9, 35, 68, 18, 104, 61, 39, 0)
s = 100: (0, 6, 29, 19, 11, 43, 99, 21, 83, 42, 55, 0)
s = 101: (0, 11, 39, 14, 12, 25, 91, 25, 115, 76, 55, 0)
s = 102: (0, 14, 35, 16, 10, 51, 79, 20, 76, 48, 40, 0)
s = 103: (0, 8, 29, 25, 11, 26, 48, 18, 85, 60, 38, 0)
s = 104: (0, 9, 38, 17, 12, 51, 80, 20, 117, 39, 27, 0)
s = 105: (0, 12, 22, 11, 8, 28, 45, 16, 59, 28, 42, 0)
s = 106: (0, 13, 53, 19, 15, 60, 69, 19, 85, 70, 61, 0)
s = 107: (0, 7, 30, 17, 9, 61, 58, 12, 138, 55, 43, 0)
s = 108: (0, 8, 32, 24, 13, 27, 70, 19, 98, 55, 30, 0)
s = 109: (0, 8, 38, 15, 9, 35, 74, 23, 142, 48, 29, 0)
s = 110: (0, 12, 46, 18, 7, 43, 50, 23, 79, 34, 31, 0)
s = 111: (0, 6, 35, 23, 20, 41, 59, 26, 70, 68, 43, 0)
s = 112: (0, 9, 27, 12, 21, 49, 69, 25, 145, 32, 50, 0)
s = 113: (0, 11, 29, 11, 12, 31, 46, 12, 121, 84, 36, 0)
s = 114: (0, 12, 36, 16, 16, 27, 42, 20, 144, 50, 37, 0)
s = 115: (0, 7, 35, 11, 11, 32, 80, 18, 111, 33, 61, 0)
s = 116: (0, 7, 46, 19, 8, 35, 56, 12, 74, 48, 32, 0)
s = 117: (0, 10, 44, 22, 14, 30, 62, 17, 98, 43, 33, 0)
s = 118: (0, 8, 32, 14, 13, 40, 60, 24, 82, 35, 38, 0)
s = 119: (0, 7, 35, 16, 9, 37, 90, 13, 145, 37, 39, 0)
s = 120: (0, 13, 38, 10, 23, 42, 79, 13, 80, 59, 42, 0)
s = 121: (0, 10, 44, 28, 10, 60, 42, 24, 120, 44, 35, 0)
s = 122: (0, 12, 42, 15, 15, 62, 97, 25, 66, 74, 55, 0)
s = 123: (0, 8, 30, 23, 14, 52, 74, 29, 113, 31, 50, 0)
s = 124: (0, 9, 40, 12, 13, 30, 63, 14, 98, 42, 62, 0)
s = 125: (0, 9, 42, 13, 9, 41, 37, 15, 75, 38, 33, 0)
s = 126: (0, 11, 36, 23, 10, 47, 44, 18, 98, 58, 28, 0)
s = 127: (0, 13, 48, 17, 22, 53, 63, 18, 141, 59, 39, 0)
s = 128: (0, 11, 20, 17, 18, 35, 58, 14, 72, 38, 33, 0)
s = 129: (0, 8, 40, 15, 20, 49, 50, 18, 85, 36, 47, 0)
s = 130: (0, 9, 22, 16, 15, 27, 61, 12, 90, 50, 31, 0)
s = 131: (0, 7, 24, 21, 11, 41, 73, 18, 79, 42, 29, 0)
s = 132: (0, 9, 33, 22, 14, 32, 51, 16, 102, 47, 63, 0)
s = 133: (0, 8, 42, 15, 23, 26, 45, 27, 70, 60, 43, 0)
s = 134: (0, 6, 35, 13, 9, 31, 89, 14, 112, 44, 26, 0)
s = 135: (0, 7, 36, 15, 9, 42, 93, 20, 152, 55, 24, 0)
s = 136: (0, 10, 24, 19, 10, 76, 87, 21, 99, 42, 31, 0)
s = 137: (0, 12, 41, 18, 10, 36, 78, 20, 127, 51, 39, 0)
s = 138: (0, 17, 42, 12, 16, 60, 66, 16, 101, 77, 40, 0)
s = 139: (0, 8, 41, 19, 12, 43, 39, 19, 114, 37, 43, 0)
s = 140: (0, 10, 48, 11, 13, 26, 57, 11, 168, 55, 70, 0)
s = 141: (0, 15, 30, 17, 16, 47, 48, 15, 84, 42, 41, 0)
s = 142: (0, 12, 32, 18, 14, 38, 86, 13, 65, 42, 52, 0)
s = 143: (0, 12, 41, 16, 10, 48, 64, 15, 89, 55, 30, 0)
s = 144: (0, 12, 50, 27, 22, 48, 47, 23, 97, 50, 41, 0)
s = 145: (0, 6, 35, 12, 18, 50, 95, 24, 141, 59, 37, 0)
s = 146: (0, 9, 39, 21, 14, 28, 69, 12, 115, 56, 47, 0)
s = 147: (0, 8, 42, 16, 14, 26, 89, 25, 60, 34, 57, 0)
s = 148: (0, 10, 35, 15, 9, 33, 47, 18, 115, 29, 34, 0)
s = 149: (0, 8, 44, 14, 9, 40, 79, 13, 77, 33, 57, 0)
s = 150: (0, 11, 30, 17, 12, 36, 83, 26, 65, 54, 54, 0)
s = 151: (0, 13, 28, 14, 13, 42, 54, 15, 65, 52, 51, 0)
s = 152: (0, 9, 24, 16, 9, 27, 37, 16, 102, 31, 52, 0)
s = 153: (0, 10, 25, 26, 12, 48, 61, 13, 137, 64, 38, 0)
s = 154: (0, 13, 36, 19, 11, 36, 77, 19, 71, 32, 46, 0)
s = 155: (0, 10, 38, 16, 14, 40, 43, 16, 76, 43, 28, 0)
s = 156: (0, 16, 30, 12, 12, 37, 88, 22, 190, 26, 30, 0)
s = 157: (0, 9, 45, 16, 11, 52, 106, 18, 78, 55, 47, 0)
s = 158: (0, 9, 29, 18, 8, 42, 99, 22, 100, 50, 44, 0)
s = 159: (0, 12, 38, 21, 13, 37, 39, 11, 115, 89, 57, 0)
s = 160: (0, 10, 23, 18, 14, 43, 78, 27, 123, 44, 55, 0)
s = 161: (0, 13, 42, 13, 22, 54, 51, 14, 102, 52, 32, 0)
s = 162: (0, 11, 31, 13, 11, 28, 70, 13, 124, 33, 51, 0)
s = 163: (0, 10, 48, 20, 14, 49, 53, 15, 147, 47, 24, 0)
s = 164: (0, 7, 32, 17, 13, 40, 76, 16, 66, 82, 26, 0)
s = 165: (0, 8, 33, 12, 16, 30, 44, 15, 127, 35, 28, 0)
s = 166: (0, 8, 47, 15, 9, 29, 56, 37, 58, 32, 48, 0)
s = 167: (0, 5, 38, 17, 11, 29, 42, 16, 108, 47, 49, 0)
s = 168: (0, 7, 25, 15, 15, 47, 90, 24, 150, 39, 30, 0)
s = 169: (0, 12, 26, 14, 19, 45, 103, 32, 84, 66, 42, 0)
s = 170: (0, 8, 41, 9, 10, 33, 74, 21, 106, 41, 31, 0)
s = 171: (0, 5, 37, 10, 11, 58, 57, 21, 131, 47, 34, 0)
s = 172: (0, 9, 40, 19, 13, 38, 55, 20, 131, 27, 59, 0)
s = 173: (0, 6, 34, 20, 23, 61, 100, 16, 148, 77, 41, 0)
s = 174: (0, 8, 31, 13, 12, 38, 43, 18, 95, 56, 48, 0)
s = 175: (0, 10, 55, 18, 12, 35, 46, 31, 73, 43, 65, 0)
s = 176: (0, 9, 47, 17, 13, 50, 39, 26, 61, 53, 36, 0)
s = 177: (0, 8, 37, 12, 12, 50, 44, 16, 117, 46, 43, 0)
s = 178: (0, 7, 22, 14, 12, 37, 102, 13, 116, 35, 34, 0)
s = 179: (0, 9, 45, 16, 12, 75, 49, 20, 84, 58, 53, 0)
s = 180: (0, 10, 29, 16, 11, 45, 60, 17, 97, 50, 28, 0)
s = 181: (0, 9, 50, 16, 11, 58, 94, 12, 67, 55, 62, 0)
s = 182: (0, 7, 32, 23, 15, 36, 70, 18, 68, 49, 39, 0)
s = 183: (0, 11, 26, 16, 23, 49, 102, 14, 134, 39, 47, 0)
s = 184: (0, 15, 39, 15, 14, 43, 81, 16, 121, 38, 38, 0)
s = 185: (0, 9, 39, 11, 15, 32, 84, 19, 80, 57, 36, 0)
s = 186: (0, 11, 45, 28, 9, 33, 54, 11, 64, 48, 31, 0)
s = 187: (0, 9, 41, 19, 14, 63, 62, 24, 87, 49, 46, 0)
s = 188: (0, 8, 31, 17, 15, 33, 45, 11, 129, 71, 43, 0)
s = 189: (0, 14, 46, 10, 10, 26, 82, 16, 183, 28, 34, 0)
s = 190: (0, 7, 24, 12, 13, 57, 77, 23, 86, 33, 41, 0)
s = 191: (0, 9, 26, 17, 10, 32, 83, 37, 95, 85, 43, 0)
s = 192: (0, 7, 57, 19, 17, 28, 78, 15, 72, 37, 38, 0)
s = 193: (0, 11, 45, 22, 17, 53, 91, 32, 61, 51, 64, 0)
s = 194: (0, 11, 47, 17, 12, 58, 78, 18, 100, 61, 54, 0)
s = 195: (0, 9, 42, 11, 7, 37, 58, 24, 71, 32, 42, 0)
s = 196: (0, 6, 35, 11, 20, 37, 93, 26, 88, 50, 34, 0)
s = 197: (0, 9, 38, 16, 18, 58, 72, 28, 135, 63, 48, 0)
s = 198: (0, 10, 33, 26, 11, 28, 55, 22, 57, 71, 30, 0)
s = 199: (0, 15, 22, 15, 13, 47, 79, 16, 79, 55, 41, 0)
s = 200: (0, 7, 27, 14, 9, 32, 75, 26, 93, 33, 37, 0)
************************************************************************
ES/LS-VALUES:
jobnr.   ES(i)    LS(i)
------------------------------------------------------------------------
  0        0        0
  1        0       71
  2        0       53
  3        0       57
  4        3       57
  5        5       59
  6       10       65
  7       10       71
  8        3       67
  9        3       71
 10       17       73
 11       22       79
************************************************************************
BIG-M-VALUES:
M1 = 45, M2 = 302
************************************************************************
